NbS2
&INPUTPH
    prefix = 'NbS2'
    outdir = 'work'

    fildyn = 'dyn'
    fildvscf = 'dvscf'

    ldisp = .true.
    nq1 = 12
    nq2 = 12
    nq3 = 1

    tr2_ph = 1e-21
/
